p cnf 18 28
17 11 0
8 -12 0
-13 14 0
-16 9 -12 0
2 5 9 16 -10 -8 -6 -4 0
11 -10 -18 0
3 5 7 13 17 -11 -8 -1 0
1 17 4 -11 6 8 12 0
-16 -7 8 0
-5 6 0
17 -12 -18 0
2 4 -1 0
-16 17 -14 0
18 5 -10 -8 -6 -4 14 0
-18 15 0
18 3 7 9 -6 -4 13 0
16 18 5 7 -8 -6 0
1 3 -11 9 -6 -4 13 0
18 3 -8 -6 12 13 0
-14 3 8 -6 11 -4 0
1 3 5 -14 18 -12 -10 -4 0
1 3 5 17 18 -13 -10 -8 -6 0
-6 13 12 5 0
1 3 5 -14 -6 -4 0
1 3 11 16 -4 0
18 -5 4 0
3 -13 11 12 -4 0
-3 0
